(declare-fun temp1266_1 () (_ BitVec 64))
(declare-fun var140390 () (_ BitVec 64))
(declare-fun temp1266_3 () (_ BitVec 64))
(declare-fun temp1266_2 () (_ BitVec 64))
(declare-fun temp1266_4 () (_ BitVec 64))
(declare-fun var2565548 () (_ BitVec 64))
(declare-fun temp1266_5 () (_ BitVec 64))
(declare-fun var2634158 () (_ BitVec 64))
(declare-fun temp1266_7 () (_ BitVec 64))
(declare-fun temp1266_6 () (_ BitVec 64))
(declare-fun temp1266_9 () (_ BitVec 64))
(declare-fun temp1266_8 () (_ BitVec 64))
(declare-fun temp1266_10 () (_ BitVec 64))
(declare-fun var2634159 () (_ BitVec 64))
(declare-fun temp1266_11 () (_ BitVec 64))
(declare-fun var4399707 () (_ BitVec 64))
(declare-fun temp1266_12 () (_ BitVec 64))
(declare-fun var77802 () (_ BitVec 64))
(declare-fun temp1266_13 () (_ BitVec 64))
(declare-fun var77803 () (_ BitVec 64))
(declare-fun temp1266_14 () (_ BitVec 64))
(declare-fun temp1266_15 () (_ BitVec 64))
(declare-fun var77861 () (_ BitVec 64))
(declare-fun temp1266_16 () (_ BitVec 64))
(declare-fun var77862 () (_ BitVec 64))
(assert (= temp1266_1 #x0000000000000000))
(assert (= var140390 temp1266_1))
(assert (= temp1266_3 #xffffffffffffffff))
(assert (= temp1266_2 temp1266_3))
(assert (= temp1266_4 #x0000000000000000))
(assert (= var2565548 temp1266_4))
(assert (= temp1266_5 #x0000000000000000))
(assert (= var2634158 temp1266_5))
(assert (= temp1266_7 #x0000000000000000))
(assert (= temp1266_6 temp1266_7))
(assert (= temp1266_9 #x0000000000000001))
(assert (= temp1266_8 temp1266_9))
(assert (= temp1266_10 #x0000000000000001))
(assert (= var2634159 (bvadd var2634158 temp1266_10)))
(assert (= temp1266_11 #x0000000000000001))
(assert (= var4399707 temp1266_11))
(assert (= temp1266_12 #x0000000000000014))
(assert (= var77802 temp1266_12))
(assert (= temp1266_13 #x0000000000000014))
(assert (= var77803
   (ite (= var77802 temp1266_13) #x0000000000000001 #x0000000000000000)))
(assert (= temp1266_14 #x0000000000000001))
(assert (= var77803 temp1266_14))
(assert (= temp1266_15 #x0000000000000000))
(assert (= var77861 temp1266_15))
(assert (= temp1266_16 #x0000000000000001))
(assert (= var77862 (bvadd var77861 temp1266_16)))
(model-add temp1266_1 () (_ BitVec 64) #x0000000000000000)
(model-add var140390 () (_ BitVec 64) #x0000000000000000)
(model-add temp1266_3 () (_ BitVec 64) #xffffffffffffffff)
(model-add temp1266_2 () (_ BitVec 64) #xffffffffffffffff)
(model-add temp1266_4 () (_ BitVec 64) #x0000000000000000)
(model-add var2565548 () (_ BitVec 64) #x0000000000000000)
(model-add temp1266_5 () (_ BitVec 64) #x0000000000000000)
(model-add var2634158 () (_ BitVec 64) #x0000000000000000)
(model-add temp1266_7 () (_ BitVec 64) #x0000000000000000)
(model-add temp1266_6 () (_ BitVec 64) #x0000000000000000)
(model-add temp1266_9 () (_ BitVec 64) #x0000000000000001)
(model-add temp1266_8 () (_ BitVec 64) #x0000000000000001)
(model-add temp1266_10 () (_ BitVec 64) #x0000000000000001)
(model-add var2634159 () (_ BitVec 64) #x0000000000000001)
(model-add temp1266_11 () (_ BitVec 64) #x0000000000000001)
(model-add var4399707 () (_ BitVec 64) #x0000000000000001)
(model-add temp1266_12 () (_ BitVec 64) #x0000000000000014)
(model-add var77802 () (_ BitVec 64) #x0000000000000014)
(model-add temp1266_13 () (_ BitVec 64) #x0000000000000014)
(model-add var77803 () (_ BitVec 64) #x0000000000000001)
(model-add temp1266_14 () (_ BitVec 64) #x0000000000000001)

